jpf-symbc-bounded/src/examples/symbolicheap/bounded/bounddb/AvlTree-01.cnf
p cnf 34 33                 
-2 -9 16 0
-3 -2 -10 0
10 -12 0
2 3 -11 0
11 -12 0
-7 -6 -13 0
13 -15 0
6 7 -14 0
14 -15 0
5 -21 0
8 -21 0
-5 -8 21 0
-3 -9 17 0
8 5 25 0
-25 -27 0
-21 4 -26 0
26 -27 0
27 -31 0
5 -8 29 0
-29 -30 0
8 -5 28 0
-28 -30 0
30 -31 0
-17 31 -32 0
-16 0
-7 0
1 0
4 0
9 0
12 0
15 0
21 0
32 0
