jpf-symbc-bounded/src/examples/symbolicheap/bounded/bounddb/AvlTree-01.txt
#AvlTree_0
@left
@right
AvlTree/AvlTree_0/left/null
AvlTree/AvlTree_0/right/null
